NAME min_flip_model
ROWS
 N  OBJ
 L  R0      
 L  R1      
 L  R2      
 L  R3      
 L  R4      
 L  R5      
 L  R6      
 L  R7      
 L  R8      
 L  R9      
 L  R10     
 L  R11     
 L  R12     
 L  R13     
 L  R14     
 L  R15     
 L  R16     
 L  R17     
 L  R18     
 L  R19     
 L  R20     
 L  R21     
 L  R22     
 L  R23     
 L  R24     
 L  R25     
 L  R26     
 L  R27     
 L  R28     
 L  R29     
 L  R30     
 L  R31     
 L  R32     
 L  R33     
 L  R34     
 L  R35     
 L  R36     
 L  R37     
 L  R38     
 L  R39     
 L  R40     
 L  R41     
 L  R42     
 L  R43     
 L  R44     
 L  R45     
 L  R46     
 L  R47     
 L  R48     
 L  R49     
 L  R50     
 L  R51     
 L  R52     
 L  R53     
 L  R54     
 L  R55     
 L  R56     
 L  R57     
 L  R58     
 L  R59     
 L  R60     
 L  R61     
 L  R62     
 L  R63     
 L  R64     
 L  R65     
 L  R66     
 L  R67     
 L  R68     
 L  R69     
 L  R70     
 L  R71     
 L  R72     
 L  R73     
 L  R74     
 L  R75     
 L  R76     
 L  R77     
 L  R78     
 L  R79     
 L  R80     
 L  R81     
 L  R82     
 L  R83     
 L  R84     
 L  R85     
 L  R86     
 L  R87     
 L  R88     
 L  R89     
 L  R90     
 L  R91     
 L  R92     
 L  R93     
 L  R94     
 L  R95     
 L  R96     
 L  R97     
 L  R98     
 L  R99     
 L  R100    
 L  R101    
 L  R102    
 L  R103    
 L  R104    
 L  R105    
 L  R106    
 L  R107    
 L  R108    
 L  R109    
 L  R110    
 L  R111    
 L  R112    
 L  R113    
 L  R114    
 G  R115    
 G  R116    
 G  R117    
 G  R118    
 G  R119    
 G  R120    
 L  R121    
 L  R122    
 L  R123    
 L  R124    
 L  R125    
 L  R126    
COLUMNS
    MARKER    'MARKER'                 'INTORG'
    X[0,0]    OBJ       1
    X[0,0]    R0        -1
    X[0,0]    R3        -1
    X[0,0]    R6        -1
    X[0,0]    R9        -1
    X[0,0]    R30       1
    X[0,0]    R33       1
    X[0,0]    R36       1
    X[0,0]    R39       1
    X[0,0]    R60       1
    X[0,0]    R63       1
    X[0,0]    R66       1
    X[0,0]    R69       1
    X[0,0]    R115      0.5
    X[0,0]    R116      0.5
    X[0,1]    OBJ       1
    X[0,1]    R0        1
    X[0,1]    R12       -1
    X[0,1]    R15       -1
    X[0,1]    R18       -1
    X[0,1]    R30       -1
    X[0,1]    R42       1
    X[0,1]    R45       1
    X[0,1]    R48       1
    X[0,1]    R60       1
    X[0,1]    R72       1
    X[0,1]    R75       1
    X[0,1]    R78       1
    X[0,1]    R117      0.5
    X[0,1]    R118      0.5
    X[0,2]    OBJ       1
    X[0,2]    R3        1
    X[0,2]    R12       1
    X[0,2]    R21       -1
    X[0,2]    R24       -1
    X[0,2]    R33       -1
    X[0,2]    R42       -1
    X[0,2]    R51       1
    X[0,2]    R54       1
    X[0,2]    R63       1
    X[0,2]    R72       1
    X[0,2]    R81       1
    X[0,2]    R84       1
    X[0,2]    R119      0.5
    X[0,2]    R120      0.5
    X[0,3]    R6        1
    X[0,3]    R15       1
    X[0,3]    R21       1
    X[0,3]    R27       -1
    X[0,3]    R36       -1
    X[0,3]    R45       -1
    X[0,3]    R51       -1
    X[0,3]    R57       1
    X[0,3]    R66       1
    X[0,3]    R75       1
    X[0,3]    R81       1
    X[0,3]    R87       1
    X[0,4]    OBJ       1
    X[0,4]    R9        1
    X[0,4]    R18       1
    X[0,4]    R24       1
    X[0,4]    R27       1
    X[0,4]    R39       -1
    X[0,4]    R48       -1
    X[0,4]    R54       -1
    X[0,4]    R57       -1
    X[0,4]    R69       1
    X[0,4]    R78       1
    X[0,4]    R84       1
    X[0,4]    R87       1
    X[1,0]    OBJ       1
    X[1,0]    R1        -1
    X[1,0]    R4        -1
    X[1,0]    R7        -1
    X[1,0]    R10       -1
    X[1,0]    R31       1
    X[1,0]    R34       1
    X[1,0]    R37       1
    X[1,0]    R40       1
    X[1,0]    R61       1
    X[1,0]    R64       1
    X[1,0]    R67       1
    X[1,0]    R70       1
    X[1,0]    R115      -0.5
    X[1,1]    R1        1
    X[1,1]    R13       -1
    X[1,1]    R16       -1
    X[1,1]    R19       -1
    X[1,1]    R31       -1
    X[1,1]    R43       1
    X[1,1]    R46       1
    X[1,1]    R49       1
    X[1,1]    R61       1
    X[1,1]    R73       1
    X[1,1]    R76       1
    X[1,1]    R79       1
    X[1,1]    R117      -0.5
    X[1,2]    OBJ       1
    X[1,2]    R4        1
    X[1,2]    R13       1
    X[1,2]    R22       -1
    X[1,2]    R25       -1
    X[1,2]    R34       -1
    X[1,2]    R43       -1
    X[1,2]    R52       1
    X[1,2]    R55       1
    X[1,2]    R64       1
    X[1,2]    R73       1
    X[1,2]    R82       1
    X[1,2]    R85       1
    X[1,2]    R119      -0.5
    X[1,3]    OBJ       1
    X[1,3]    R7        1
    X[1,3]    R16       1
    X[1,3]    R22       1
    X[1,3]    R28       -1
    X[1,3]    R37       -1
    X[1,3]    R46       -1
    X[1,3]    R52       -1
    X[1,3]    R58       1
    X[1,3]    R67       1
    X[1,3]    R76       1
    X[1,3]    R82       1
    X[1,3]    R88       1
    X[1,4]    OBJ       1
    X[1,4]    R10       1
    X[1,4]    R19       1
    X[1,4]    R25       1
    X[1,4]    R28       1
    X[1,4]    R40       -1
    X[1,4]    R49       -1
    X[1,4]    R55       -1
    X[1,4]    R58       -1
    X[1,4]    R70       1
    X[1,4]    R79       1
    X[1,4]    R85       1
    X[1,4]    R88       1
    X[2,0]    OBJ       1
    X[2,0]    R2        -1
    X[2,0]    R5        -1
    X[2,0]    R8        -1
    X[2,0]    R11       -1
    X[2,0]    R32       1
    X[2,0]    R35       1
    X[2,0]    R38       1
    X[2,0]    R41       1
    X[2,0]    R62       1
    X[2,0]    R65       1
    X[2,0]    R68       1
    X[2,0]    R71       1
    X[2,0]    R116      -0.5
    X[2,1]    OBJ       1
    X[2,1]    R2        1
    X[2,1]    R14       -1
    X[2,1]    R17       -1
    X[2,1]    R20       -1
    X[2,1]    R32       -1
    X[2,1]    R44       1
    X[2,1]    R47       1
    X[2,1]    R50       1
    X[2,1]    R62       1
    X[2,1]    R74       1
    X[2,1]    R77       1
    X[2,1]    R80       1
    X[2,1]    R118      -0.5
    X[2,2]    OBJ       1
    X[2,2]    R5        1
    X[2,2]    R14       1
    X[2,2]    R23       -1
    X[2,2]    R26       -1
    X[2,2]    R35       -1
    X[2,2]    R44       -1
    X[2,2]    R53       1
    X[2,2]    R56       1
    X[2,2]    R65       1
    X[2,2]    R74       1
    X[2,2]    R83       1
    X[2,2]    R86       1
    X[2,2]    R120      -0.5
    X[2,3]    OBJ       1
    X[2,3]    R8        1
    X[2,3]    R17       1
    X[2,3]    R23       1
    X[2,3]    R29       -1
    X[2,3]    R38       -1
    X[2,3]    R47       -1
    X[2,3]    R53       -1
    X[2,3]    R59       1
    X[2,3]    R68       1
    X[2,3]    R77       1
    X[2,3]    R83       1
    X[2,3]    R89       1
    X[2,4]    OBJ       1
    X[2,4]    R11       1
    X[2,4]    R20       1
    X[2,4]    R26       1
    X[2,4]    R29       1
    X[2,4]    R41       -1
    X[2,4]    R50       -1
    X[2,4]    R56       -1
    X[2,4]    R59       -1
    X[2,4]    R71       1
    X[2,4]    R80       1
    X[2,4]    R86       1
    X[2,4]    R89       1
    B01[0,0]  OBJ       0
    B01[0,1]  R0        -1
    B01[0,1]  R1        -1
    B01[0,1]  R2        -1
    B01[0,1]  R90       1
    B01[0,2]  R3        -1
    B01[0,2]  R4        -1
    B01[0,2]  R5        -1
    B01[0,2]  R91       1
    B01[0,3]  R6        -1
    B01[0,3]  R7        -1
    B01[0,3]  R8        -1
    B01[0,3]  R92       1
    B01[0,4]  R9        -1
    B01[0,4]  R10       -1
    B01[0,4]  R11       -1
    B01[0,4]  R93       1
    B01[1,0]  OBJ       0
    B01[1,1]  OBJ       0
    B01[1,2]  R12       -1
    B01[1,2]  R13       -1
    B01[1,2]  R14       -1
    B01[1,2]  R94       1
    B01[1,3]  R15       -1
    B01[1,3]  R16       -1
    B01[1,3]  R17       -1
    B01[1,3]  R95       1
    B01[1,4]  R18       -1
    B01[1,4]  R19       -1
    B01[1,4]  R20       -1
    B01[1,4]  R96       1
    B01[2,0]  OBJ       0
    B01[2,1]  OBJ       0
    B01[2,2]  OBJ       0
    B01[2,3]  R21       -1
    B01[2,3]  R22       -1
    B01[2,3]  R23       -1
    B01[2,3]  R97       1
    B01[2,4]  R24       -1
    B01[2,4]  R25       -1
    B01[2,4]  R26       -1
    B01[2,4]  R98       1
    B01[3,0]  OBJ       0
    B01[3,1]  OBJ       0
    B01[3,2]  OBJ       0
    B01[3,3]  OBJ       0
    B01[3,4]  R27       -1
    B01[3,4]  R28       -1
    B01[3,4]  R29       -1
    B01[3,4]  R99       1
    B01[4,0]  OBJ       0
    B01[4,1]  OBJ       0
    B01[4,2]  OBJ       0
    B01[4,3]  OBJ       0
    B01[4,4]  OBJ       0
    B10[0,0]  OBJ       0
    B10[0,1]  R30       -1
    B10[0,1]  R31       -1
    B10[0,1]  R32       -1
    B10[0,1]  R90       1
    B10[0,2]  R33       -1
    B10[0,2]  R34       -1
    B10[0,2]  R35       -1
    B10[0,2]  R91       1
    B10[0,3]  R36       -1
    B10[0,3]  R37       -1
    B10[0,3]  R38       -1
    B10[0,3]  R92       1
    B10[0,4]  R39       -1
    B10[0,4]  R40       -1
    B10[0,4]  R41       -1
    B10[0,4]  R93       1
    B10[1,0]  OBJ       0
    B10[1,1]  OBJ       0
    B10[1,2]  R42       -1
    B10[1,2]  R43       -1
    B10[1,2]  R44       -1
    B10[1,2]  R94       1
    B10[1,3]  R45       -1
    B10[1,3]  R46       -1
    B10[1,3]  R47       -1
    B10[1,3]  R95       1
    B10[1,4]  R48       -1
    B10[1,4]  R49       -1
    B10[1,4]  R50       -1
    B10[1,4]  R96       1
    B10[2,0]  OBJ       0
    B10[2,1]  OBJ       0
    B10[2,2]  OBJ       0
    B10[2,3]  R51       -1
    B10[2,3]  R52       -1
    B10[2,3]  R53       -1
    B10[2,3]  R97       1
    B10[2,4]  R54       -1
    B10[2,4]  R55       -1
    B10[2,4]  R56       -1
    B10[2,4]  R98       1
    B10[3,0]  OBJ       0
    B10[3,1]  OBJ       0
    B10[3,2]  OBJ       0
    B10[3,3]  OBJ       0
    B10[3,4]  R57       -1
    B10[3,4]  R58       -1
    B10[3,4]  R59       -1
    B10[3,4]  R99       1
    B10[4,0]  OBJ       0
    B10[4,1]  OBJ       0
    B10[4,2]  OBJ       0
    B10[4,3]  OBJ       0
    B10[4,4]  OBJ       0
    B11[0,0]  OBJ       0
    B11[0,1]  R60       -1
    B11[0,1]  R61       -1
    B11[0,1]  R62       -1
    B11[0,1]  R90       1
    B11[0,2]  R63       -1
    B11[0,2]  R64       -1
    B11[0,2]  R65       -1
    B11[0,2]  R91       1
    B11[0,3]  R66       -1
    B11[0,3]  R67       -1
    B11[0,3]  R68       -1
    B11[0,3]  R92       1
    B11[0,4]  R69       -1
    B11[0,4]  R70       -1
    B11[0,4]  R71       -1
    B11[0,4]  R93       1
    B11[1,0]  OBJ       0
    B11[1,1]  OBJ       0
    B11[1,2]  R72       -1
    B11[1,2]  R73       -1
    B11[1,2]  R74       -1
    B11[1,2]  R94       1
    B11[1,3]  R75       -1
    B11[1,3]  R76       -1
    B11[1,3]  R77       -1
    B11[1,3]  R95       1
    B11[1,4]  R78       -1
    B11[1,4]  R79       -1
    B11[1,4]  R80       -1
    B11[1,4]  R96       1
    B11[2,0]  OBJ       0
    B11[2,1]  OBJ       0
    B11[2,2]  OBJ       0
    B11[2,3]  R81       -1
    B11[2,3]  R82       -1
    B11[2,3]  R83       -1
    B11[2,3]  R97       1
    B11[2,4]  R84       -1
    B11[2,4]  R85       -1
    B11[2,4]  R86       -1
    B11[2,4]  R98       1
    B11[3,0]  OBJ       0
    B11[3,1]  OBJ       0
    B11[3,2]  OBJ       0
    B11[3,3]  OBJ       0
    B11[3,4]  R87       -1
    B11[3,4]  R88       -1
    B11[3,4]  R89       -1
    B11[3,4]  R99       1
    B11[4,0]  OBJ       0
    B11[4,1]  OBJ       0
    B11[4,2]  OBJ       0
    B11[4,3]  OBJ       0
    B11[4,4]  OBJ       0
    z[0,0]    OBJ       0
    z[0,1]    R115      -1
    z[0,2]    R116      -1
    z[1,0]    OBJ       0
    z[1,1]    R117      -1
    z[1,2]    R118      -1
    z[2,0]    OBJ       0
    z[2,1]    R119      -1
    z[2,2]    R120      -1
    MARKER    'MARKER'                 'INTEND'
RHS
    RHS1      R90       2
    RHS1      R91       2
    RHS1      R92       2
    RHS1      R93       2
    RHS1      R94       2
    RHS1      R95       2
    RHS1      R96       2
    RHS1      R97       2
    RHS1      R98       2
    RHS1      R99       2
    RHS1      R115      -0.5
    RHS1      R116      -0.5
    RHS1      R117      -0.5
    RHS1      R118      -0.5
    RHS1      R119      -0.5
    RHS1      R120      -0.5
    RHS1      R121      -1
    RHS1      R122      -1
    RHS1      R123      -1
    RHS1      R124      -1
    RHS1      R125      -1
    RHS1      R126      -1
BOUNDS
 BV BND1      X[0,0]  
 BV BND1      X[0,1]  
 BV BND1      X[0,2]  
 BV BND1      X[0,3]  
 BV BND1      X[0,4]  
 BV BND1      X[1,0]  
 BV BND1      X[1,1]  
 BV BND1      X[1,2]  
 BV BND1      X[1,3]  
 BV BND1      X[1,4]  
 BV BND1      X[2,0]  
 BV BND1      X[2,1]  
 BV BND1      X[2,2]  
 BV BND1      X[2,3]  
 BV BND1      X[2,4]  
 BV BND1      B01[0,0]
 BV BND1      B01[0,1]
 BV BND1      B01[0,2]
 BV BND1      B01[0,3]
 BV BND1      B01[0,4]
 BV BND1      B01[1,0]
 BV BND1      B01[1,1]
 BV BND1      B01[1,2]
 BV BND1      B01[1,3]
 BV BND1      B01[1,4]
 BV BND1      B01[2,0]
 BV BND1      B01[2,1]
 BV BND1      B01[2,2]
 BV BND1      B01[2,3]
 BV BND1      B01[2,4]
 BV BND1      B01[3,0]
 BV BND1      B01[3,1]
 BV BND1      B01[3,2]
 BV BND1      B01[3,3]
 BV BND1      B01[3,4]
 BV BND1      B01[4,0]
 BV BND1      B01[4,1]
 BV BND1      B01[4,2]
 BV BND1      B01[4,3]
 BV BND1      B01[4,4]
 BV BND1      B10[0,0]
 BV BND1      B10[0,1]
 BV BND1      B10[0,2]
 BV BND1      B10[0,3]
 BV BND1      B10[0,4]
 BV BND1      B10[1,0]
 BV BND1      B10[1,1]
 BV BND1      B10[1,2]
 BV BND1      B10[1,3]
 BV BND1      B10[1,4]
 BV BND1      B10[2,0]
 BV BND1      B10[2,1]
 BV BND1      B10[2,2]
 BV BND1      B10[2,3]
 BV BND1      B10[2,4]
 BV BND1      B10[3,0]
 BV BND1      B10[3,1]
 BV BND1      B10[3,2]
 BV BND1      B10[3,3]
 BV BND1      B10[3,4]
 BV BND1      B10[4,0]
 BV BND1      B10[4,1]
 BV BND1      B10[4,2]
 BV BND1      B10[4,3]
 BV BND1      B10[4,4]
 BV BND1      B11[0,0]
 BV BND1      B11[0,1]
 BV BND1      B11[0,2]
 BV BND1      B11[0,3]
 BV BND1      B11[0,4]
 BV BND1      B11[1,0]
 BV BND1      B11[1,1]
 BV BND1      B11[1,2]
 BV BND1      B11[1,3]
 BV BND1      B11[1,4]
 BV BND1      B11[2,0]
 BV BND1      B11[2,1]
 BV BND1      B11[2,2]
 BV BND1      B11[2,3]
 BV BND1      B11[2,4]
 BV BND1      B11[3,0]
 BV BND1      B11[3,1]
 BV BND1      B11[3,2]
 BV BND1      B11[3,3]
 BV BND1      B11[3,4]
 BV BND1      B11[4,0]
 BV BND1      B11[4,1]
 BV BND1      B11[4,2]
 BV BND1      B11[4,3]
 BV BND1      B11[4,4]
 BV BND1      z[0,0]  
 BV BND1      z[0,1]  
 BV BND1      z[0,2]  
 BV BND1      z[1,0]  
 BV BND1      z[1,1]  
 BV BND1      z[1,2]  
 BV BND1      z[2,0]  
 BV BND1      z[2,1]  
 BV BND1      z[2,2]  
ENDATA
